c colouring generated by benchmark framework
p edge 500 58862
v 1 79
v 2 111
v 3 87
v 4 21
v 5 87
v 6 95
v 7 81
v 8 42
v 9 132
v 10 25
v 11 5
v 12 46
v 13 127
v 14 80
v 15 95
v 16 19
v 17 125
v 18 88
v 19 80
v 20 74
v 21 16
v 22 71
v 23 2
v 24 50
v 25 130
v 26 32
v 27 19
v 28 118
v 29 51
v 30 36
v 31 103
v 32 31
v 33 44
v 34 10
v 35 72
v 36 78
v 37 60
v 38 19
v 39 108
v 40 11
v 41 23
v 42 90
v 43 35
v 44 104
v 45 30
v 46 79
v 47 44
v 48 17
v 49 121
v 50 37
v 51 107
v 52 60
v 53 119
v 54 62
v 55 11
v 56 101
v 57 11
v 58 119
v 59 128
v 60 89
v 61 118
v 62 16
v 63 102
v 64 93
v 65 66
v 66 48
v 67 123
v 68 70
v 69 33
v 70 62
v 71 125
v 72 68
v 73 115
v 74 50
v 75 32
v 76 50
v 77 90
v 78 48
v 79 49
v 80 86
v 81 94
v 82 14
v 83 105
v 84 101
v 85 45
v 86 55
v 87 64
v 88 134
v 89 36
v 90 54
v 91 76
v 92 81
v 93 126
v 94 100
v 95 20
v 96 27
v 97 50
v 98 13
v 99 65
v 100 18
v 101 105
v 102 87
v 103 37
v 104 33
v 105 12
v 106 2
v 107 59
v 108 29
v 109 84
v 110 76
v 111 71
v 112 35
v 113 121
v 114 100
v 115 123
v 116 52
v 117 65
v 118 28
v 119 28
v 120 63
v 121 52
v 122 59
v 123 23
v 124 8
v 125 92
v 126 122
v 127 37
v 128 69
v 129 7
v 130 25
v 131 9
v 132 84
v 133 94
v 134 94
v 135 22
v 136 99
v 137 32
v 138 11
v 139 88
v 140 38
v 141 44
v 142 76
v 143 127
v 144 47
v 145 63
v 146 43
v 147 71
v 148 83
v 149 91
v 150 22
v 151 88
v 152 24
v 153 31
v 154 107
v 155 8
v 156 16
v 157 89
v 158 112
v 159 120
v 160 13
v 161 97
v 162 111
v 163 69
v 164 4
v 165 106
v 166 101
v 167 30
v 168 52
v 169 18
v 170 34
v 171 133
v 172 85
v 173 70
v 174 90
v 175 63
v 176 57
v 177 133
v 178 29
v 179 56
v 180 14
v 181 32
v 182 12
v 183 86
v 184 97
v 185 18
v 186 1
v 187 1
v 188 34
v 189 92
v 190 0
v 191 83
v 192 64
v 193 30
v 194 89
v 195 75
v 196 84
v 197 134
v 198 93
v 199 69
v 200 1
v 201 9
v 202 79
v 203 36
v 204 114
v 205 90
v 206 44
v 207 27
v 208 104
v 209 125
v 210 70
v 211 47
v 212 48
v 213 131
v 214 4
v 215 30
v 216 14
v 217 58
v 218 24
v 219 72
v 220 122
v 221 30
v 222 75
v 223 54
v 224 129
v 225 116
v 226 17
v 227 11
v 228 2
v 229 115
v 230 109
v 231 6
v 232 131
v 233 5
v 234 39
v 235 36
v 236 27
v 237 91
v 238 46
v 239 0
v 240 9
v 241 103
v 242 130
v 243 6
v 244 15
v 245 38
v 246 57
v 247 120
v 248 17
v 249 34
v 250 64
v 251 4
v 252 5
v 253 82
v 254 23
v 255 85
v 256 3
v 257 115
v 258 9
v 259 18
v 260 35
v 261 33
v 262 10
v 263 15
v 264 1
v 265 96
v 266 23
v 267 108
v 268 69
v 269 98
v 270 70
v 271 40
v 272 52
v 273 117
v 274 64
v 275 1
v 276 22
v 277 55
v 278 112
v 279 13
v 280 6
v 281 113
v 282 129
v 283 6
v 284 7
v 285 65
v 286 74
v 287 51
v 288 41
v 289 55
v 290 58
v 291 0
v 292 12
v 293 20
v 294 80
v 295 105
v 296 37
v 297 49
v 298 95
v 299 47
v 300 20
v 301 92
v 302 39
v 303 56
v 304 60
v 305 84
v 306 134
v 307 45
v 308 118
v 309 4
v 310 3
v 311 22
v 312 83
v 313 124
v 314 53
v 315 110
v 316 61
v 317 3
v 318 87
v 319 31
v 320 8
v 321 25
v 322 39
v 323 40
v 324 54
v 325 112
v 326 19
v 327 45
v 328 105
v 329 19
v 330 11
v 331 51
v 332 83
v 333 78
v 334 73
v 335 106
v 336 124
v 337 51
v 338 55
v 339 62
v 340 77
v 341 21
v 342 73
v 343 81
v 344 10
v 345 98
v 346 0
v 347 26
v 348 57
v 349 35
v 350 59
v 351 22
v 352 20
v 353 43
v 354 54
v 355 29
v 356 4
v 357 96
v 358 43
v 359 130
v 360 65
v 361 78
v 362 38
v 363 5
v 364 85
v 365 128
v 366 24
v 367 56
v 368 68
v 369 2
v 370 21
v 371 41
v 372 67
v 373 74
v 374 8
v 375 16
v 376 53
v 377 71
v 378 17
v 379 0
v 380 88
v 381 67
v 382 40
v 383 114
v 384 45
v 385 92
v 386 46
v 387 124
v 388 59
v 389 46
v 390 129
v 391 113
v 392 77
v 393 102
v 394 132
v 395 49
v 396 31
v 397 24
v 398 73
v 399 25
v 400 53
v 401 53
v 402 93
v 403 28
v 404 117
v 405 108
v 406 76
v 407 99
v 408 42
v 409 58
v 410 14
v 411 66
v 412 99
v 413 26
v 414 36
v 415 41
v 416 34
v 417 89
v 418 70
v 419 95
v 420 109
v 421 0
v 422 81
v 423 102
v 424 123
v 425 15
v 426 2
v 427 26
v 428 97
v 429 9
v 430 121
v 431 110
v 432 62
v 433 67
v 434 56
v 435 13
v 436 12
v 437 9
v 438 66
v 439 42
v 440 82
v 441 8
v 442 117
v 443 75
v 444 86
v 445 41
v 446 93
v 447 40
v 448 77
v 449 91
v 450 131
v 451 86
v 452 106
v 453 73
v 454 10
v 455 48
v 456 72
v 457 61
v 458 61
v 459 126
v 460 82
v 461 33
v 462 44
v 463 42
v 464 19
v 465 82
v 466 60
v 467 75
v 468 36
v 469 5
v 470 57
v 471 28
v 472 45
v 473 23
v 474 100
v 475 127
v 476 74
v 477 15
v 478 7
v 479 77
v 480 3
v 481 47
v 482 43
v 483 113
v 484 132
v 485 116
v 486 26
v 487 96
v 488 21
v 489 49
v 490 78
v 491 68
v 492 85
v 493 39
v 494 46
v 495 3
v 496 106
v 497 104
v 498 98
v 499 29
v 500 33
